p tw 121 36301 2 
1 3 
1 4 
1 5 
1 6 
1 7 
1 8 
1 9 
1 10 
1 11 
1 13 
1 15 
1 17 
1 19 
1 21 
1 24 
1 26 
1 28 
1 30 
1 32 
1 35 
1 37 
1 39 
1 41 
1 43 
1 46 
1 48 
1 50 
1 52 
1 54 
1 57 
1 59 
1 61 
1 63 
1 65 
1 68 
1 70 
1 72 
1 74 
1 76 
1 79 
1 81 
1 83 
1 85 
1 87 
1 90 
1 92 
1 94 
1 96 
1 98 
1 101 
1 103 
1 105 
1 107 
1 109 
1 112 
1 114 
1 116 
1 118 
1 120 
2 3 
2 4 
2 5 
2 6 
2 7 
2 8 
2 9 
2 10 
2 11 
2 13 
2 16 
2 18 
2 19 
2 23 
2 24 
2 27 
2 28 
2 29 
2 30 
2 31 
2 32 
2 33 
2 41 
2 43 
2 45 
2 48 
2 49 
2 50 
2 55 
2 56 
2 58 
2 62 
2 66 
2 69 
2 73 
2 80 
2 82 
2 83 
2 85 
2 86 
2 89 
2 90 
2 91 
2 92 
2 93 
2 95 
2 97 
2 99 
2 101 
2 103 
2 105 
2 108 
2 109 
2 111 
2 113 
2 114 
2 119 
2 120 
2 121 
3 4 
3 5 
3 6 
3 7 
3 8 
3 9 
3 10 
3 11 
3 12 
3 14 
3 15 
3 20 
3 21 
3 22 
3 24 
3 27 
3 29 
3 30 
3 34 
3 35 
3 38 
3 39 
3 40 
3 41 
3 42 
3 43 
3 44 
3 52 
3 54 
3 56 
3 59 
3 60 
3 61 
3 66 
3 67 
3 69 
3 73 
3 77 
3 80 
3 84 
3 91 
3 93 
3 94 
3 96 
3 97 
3 100 
3 101 
3 102 
3 103 
3 104 
3 106 
3 108 
3 110 
3 112 
3 114 
3 116 
3 119 
3 120 
4 5 
4 6 
4 7 
4 8 
4 9 
4 10 
4 11 
4 13 
4 15 
4 17 
4 20 
4 21 
4 23 
4 25 
4 26 
4 31 
4 32 
4 33 
4 35 
4 38 
4 40 
4 41 
4 45 
4 46 
4 49 
4 50 
4 51 
4 52 
4 53 
4 54 
4 55 
4 63 
4 65 
4 67 
4 70 
4 71 
4 72 
4 77 
4 78 
4 80 
4 84 
4 88 
4 91 
4 95 
4 102 
4 104 
4 105 
4 107 
4 108 
4 111 
4 112 
4 113 
4 114 
4 115 
4 117 
4 119 
4 121 
5 6 
5 7 
5 8 
5 9 
5 10 
5 11 
5 12 
5 13 
5 14 
5 15 
5 16 
5 18 
5 20 
5 22 
5 24 
5 26 
5 28 
5 31 
5 32 
5 34 
5 36 
5 37 
5 42 
5 43 
5 44 
5 46 
5 49 
5 51 
5 52 
5 56 
5 57 
5 60 
5 61 
5 62 
5 63 
5 64 
5 65 
5 66 
5 74 
5 76 
5 78 
5 81 
5 82 
5 83 
5 88 
5 89 
5 91 
5 95 
5 99 
5 102 
5 106 
5 113 
5 115 
5 116 
5 118 
5 119 
6 7 
6 8 
6 9 
6 10 
6 11 
6 14 
6 16 
6 17 
6 19 
6 20 
6 23 
6 24 
6 25 
6 26 
6 27 
6 29 
6 31 
6 33 
6 35 
6 37 
6 39 
6 42 
6 43 
6 45 
6 47 
6 48 
6 53 
6 54 
6 55 
6 57 
6 60 
6 62 
6 63 
6 67 
6 68 
6 71 
6 72 
6 73 
6 74 
6 75 
6 76 
6 77 
6 85 
6 87 
6 89 
6 92 
6 93 
6 94 
6 99 
6 100 
6 102 
6 106 
6 110 
6 113 
6 117 
7 8 
7 9 
7 10 
7 11 
7 14 
7 18 
7 25 
7 27 
7 28 
7 30 
7 31 
7 34 
7 35 
7 36 
7 37 
7 38 
7 40 
7 42 
7 44 
7 46 
7 48 
7 50 
7 53 
7 54 
7 56 
7 58 
7 59 
7 64 
7 65 
7 66 
7 68 
7 71 
7 73 
7 74 
7 78 
7 79 
7 82 
7 83 
7 84 
7 85 
7 86 
7 87 
7 88 
7 96 
7 98 
7 100 
7 103 
7 104 
7 105 
7 110 
7 111 
7 113 
7 117 
7 121 
8 9 
8 10 
8 11 
8 12 
8 14 
8 18 
8 22 
8 25 
8 29 
8 36 
8 38 
8 39 
8 41 
8 42 
8 45 
8 46 
8 47 
8 48 
8 49 
8 51 
8 53 
8 55 
8 57 
8 59 
8 61 
8 64 
8 65 
8 67 
8 69 
8 70 
8 75 
8 76 
8 77 
8 79 
8 82 
8 84 
8 85 
8 89 
8 90 
8 93 
8 94 
8 95 
8 96 
8 97 
8 98 
8 99 
8 107 
8 109 
8 111 
8 114 
8 115 
8 116 
8 121 
9 10 
9 11 
9 12 
9 15 
9 16 
9 17 
9 22 
9 23 
9 25 
9 29 
9 33 
9 36 
9 40 
9 47 
9 49 
9 50 
9 52 
9 53 
9 56 
9 57 
9 58 
9 59 
9 60 
9 62 
9 64 
9 66 
9 68 
9 70 
9 72 
9 75 
9 76 
9 78 
9 80 
9 81 
9 86 
9 87 
9 88 
9 90 
9 93 
9 95 
9 96 
9 100 
9 101 
9 104 
9 105 
9 106 
9 107 
9 108 
9 109 
9 110 
9 118 
9 120 
10 11 
10 19 
10 21 
10 23 
10 26 
10 27 
10 28 
10 33 
10 34 
10 36 
10 40 
10 44 
10 47 
10 51 
10 58 
10 60 
10 61 
10 63 
10 64 
10 67 
10 68 
10 69 
10 70 
10 71 
10 73 
10 75 
10 77 
10 79 
10 81 
10 83 
10 86 
10 87 
10 89 
10 91 
10 92 
10 97 
10 98 
10 99 
10 101 
10 104 
10 106 
10 107 
10 111 
10 112 
10 115 
10 116 
10 117 
10 118 
10 119 
10 120 
10 121 
11 12 
11 13 
11 16 
11 17 
11 18 
11 19 
11 20 
11 21 
11 22 
11 30 
11 32 
11 34 
11 37 
11 38 
11 39 
11 44 
11 45 
11 47 
11 51 
11 55 
11 58 
11 62 
11 69 
11 71 
11 72 
11 74 
11 75 
11 78 
11 79 
11 80 
11 81 
11 82 
11 84 
11 86 
11 88 
11 90 
11 92 
11 94 
11 97 
11 98 
11 100 
11 102 
11 103 
11 108 
11 109 
11 110 
11 112 
11 115 
11 117 
11 118 
12 13 
12 15 
12 16 
12 18 
12 21 
12 22 
12 26 
12 27 
12 35 
12 36 
12 37 
12 38 
12 39 
12 40 
12 41 
12 43 
12 47 
12 48 
12 52 
12 53 
12 54 
12 55 
12 58 
12 60 
12 61 
12 62 
12 64 
12 65 
12 66 
12 68 
12 69 
12 71 
12 72 
12 73 
12 75 
12 76 
12 77 
12 79 
12 80 
12 82 
12 85 
12 88 
12 95 
12 97 
12 99 
12 101 
12 103 
12 105 
12 107 
12 108 
12 113 
12 116 
12 117 
12 118 
12 119 
13 15 
13 18 
13 20 
13 21 
13 24 
13 25 
13 26 
13 29 
13 30 
13 31 
13 32 
13 33 
13 34 
13 35 
13 43 
13 46 
13 47 
13 50 
13 51 
13 52 
13 56 
13 57 
13 58 
13 60 
13 64 
13 67 
13 68 
13 71 
13 75 
13 79 
13 82 
13 84 
13 85 
13 87 
13 88 
13 90 
13 91 
13 92 
13 93 
13 94 
13 95 
13 97 
13 99 
13 100 
13 101 
13 103 
13 105 
13 107 
13 110 
13 112 
13 113 
13 115 
13 116 
13 121 
14 15 
14 17 
14 18 
14 20 
14 23 
14 24 
14 28 
14 29 
14 37 
14 38 
14 39 
14 40 
14 41 
14 42 
14 43 
14 46 
14 49 
14 50 
14 54 
14 55 
14 56 
14 60 
14 62 
14 63 
14 64 
14 66 
14 67 
14 70 
14 71 
14 73 
14 74 
14 75 
14 77 
14 78 
14 79 
14 81 
14 82 
14 84 
14 87 
14 89 
14 90 
14 97 
14 99 
14 100 
14 103 
14 105 
14 107 
14 109 
14 110 
14 112 
14 115 
14 118 
14 119 
14 120 
14 121 
15 17 
15 20 
15 22 
15 26 
15 27 
15 28 
15 31 
15 32 
15 33 
15 34 
15 35 
15 36 
15 37 
15 46 
15 48 
15 49 
15 52 
15 53 
15 54 
15 58 
15 59 
15 60 
15 62 
15 66 
15 69 
15 70 
15 73 
15 77 
15 81 
15 84 
15 86 
15 87 
15 89 
15 92 
15 93 
15 94 
15 95 
15 96 
15 97 
15 99 
15 100 
15 102 
15 103 
15 105 
15 107 
15 109 
15 111 
15 112 
15 114 
15 115 
15 117 
15 118 
16 17 
16 19 
16 20 
16 22 
16 24 
16 25 
16 26 
16 30 
16 31 
16 39 
16 40 
16 41 
16 42 
16 43 
16 44 
16 46 
16 48 
16 51 
16 52 
16 56 
16 57 
16 58 
16 62 
16 64 
16 65 
16 66 
16 67 
16 68 
16 69 
16 72 
16 73 
16 75 
16 76 
16 77 
16 78 
16 79 
16 80 
16 81 
16 83 
16 84 
16 86 
16 91 
16 92 
16 99 
16 100 
16 102 
16 105 
16 107 
16 109 
16 111 
16 114 
16 117 
16 120 
16 121 
17 19 
17 22 
17 23 
17 24 
17 28 
17 29 
17 30 
17 33 
17 34 
17 35 
17 36 
17 37 
17 38 
17 39 
17 46 
17 48 
17 50 
17 51 
17 54 
17 55 
17 60 
17 61 
17 62 
17 64 
17 67 
17 71 
17 72 
17 75 
17 78 
17 83 
17 86 
17 88 
17 90 
17 91 
17 94 
17 95 
17 96 
17 97 
17 98 
17 99 
17 100 
17 102 
17 104 
17 105 
17 107 
17 109 
17 113 
17 114 
17 116 
17 117 
17 119 
17 120 
18 19 
18 21 
18 22 
18 23 
18 26 
18 27 
18 28 
18 32 
18 33 
18 41 
18 42 
18 43 
18 44 
18 45 
18 46 
18 48 
18 50 
18 53 
18 54 
18 57 
18 58 
18 59 
18 60 
18 64 
18 66 
18 67 
18 69 
18 70 
18 71 
18 74 
18 75 
18 77 
18 78 
18 80 
18 81 
18 82 
18 83 
18 85 
18 86 
18 88 
18 90 
18 93 
18 94 
18 100 
18 102 
18 104 
18 107 
18 109 
18 112 
18 113 
18 116 
18 119 
19 21 
19 23 
19 25 
19 26 
19 30 
19 31 
19 32 
19 34 
19 35 
19 36 
19 37 
19 38 
19 39 
19 40 
19 41 
19 48 
19 50 
19 52 
19 53 
19 56 
19 57 
19 62 
19 63 
19 64 
19 66 
19 69 
19 73 
19 74 
19 77 
19 80 
19 85 
19 88 
19 89 
19 90 
19 92 
19 93 
19 96 
19 97 
19 98 
19 99 
19 100 
19 102 
19 104 
19 106 
19 107 
19 109 
19 112 
19 115 
19 116 
19 118 
19 119 
19 121 
20 21 
20 23 
20 25 
20 28 
20 29 
20 30 
20 34 
20 43 
20 44 
20 45 
20 46 
20 47 
20 48 
20 50 
20 52 
20 55 
20 59 
20 60 
20 61 
20 62 
20 66 
20 67 
20 68 
20 69 
20 71 
20 72 
20 73 
20 76 
20 77 
20 78 
20 79 
20 80 
20 82 
20 83 
20 84 
20 85 
20 87 
20 88 
20 89 
20 92 
20 95 
20 96 
20 102 
20 104 
20 106 
20 109 
20 112 
20 114 
20 115 
20 118 
20 121 
21 25 
21 27 
21 28 
21 32 
21 33 
21 36 
21 37 
21 38 
21 39 
21 40 
21 41 
21 42 
21 43 
21 50 
21 52 
21 54 
21 55 
21 57 
21 58 
21 59 
21 64 
21 65 
21 66 
21 67 
21 71 
21 75 
21 76 
21 78 
21 82 
21 87 
21 89 
21 91 
21 92 
21 94 
21 95 
21 98 
21 99 
21 100 
21 101 
21 102 
21 104 
21 106 
21 108 
21 109 
21 112 
21 114 
21 117 
21 118 
21 120 
21 121 
22 24 
22 25 
22 27 
22 30 
22 31 
22 32 
22 35 
22 36 
22 45 
22 46 
22 47 
22 48 
22 49 
22 50 
22 52 
22 54 
22 56 
22 57 
22 61 
22 62 
22 63 
22 64 
22 67 
22 69 
22 70 
22 71 
22 73 
22 74 
22 75 
22 78 
22 80 
22 81 
22 82 
22 84 
22 85 
22 86 
22 87 
22 89 
22 91 
22 94 
22 97 
22 98 
22 104 
22 106 
22 108 
22 112 
22 114 
22 116 
22 117 
22 120 
23 24 
23 26 
23 27 
23 29 
23 32 
23 33 
23 37 
23 38 
23 46 
23 47 
23 48 
23 49 
23 50 
23 51 
23 52 
23 54 
23 58 
23 59 
23 63 
23 64 
23 65 
23 66 
23 69 
23 71 
23 72 
23 73 
23 75 
23 76 
23 77 
23 79 
23 80 
23 82 
23 83 
23 84 
23 86 
23 87 
23 88 
23 90 
23 91 
23 93 
23 96 
23 99 
23 106 
23 108 
23 110 
23 112 
23 114 
23 116 
23 118 
23 119 
24 26 
24 29 
24 31 
24 32 
24 35 
24 36 
24 37 
24 40 
24 41 
24 42 
24 43 
24 44 
24 45 
24 46 
24 54 
24 57 
24 58 
24 61 
24 62 
24 63 
24 67 
24 68 
24 69 
24 71 
24 75 
24 78 
24 79 
24 82 
24 86 
24 90 
24 93 
24 95 
24 96 
24 98 
24 99 
24 101 
24 102 
24 103 
24 104 
24 105 
24 106 
24 108 
24 110 
24 111 
24 112 
24 114 
24 116 
24 118 
24 121 
25 26 
25 28 
25 29 
25 31 
25 34 
25 35 
25 39 
25 40 
25 48 
25 49 
25 50 
25 51 
25 52 
25 53 
25 54 
25 57 
25 60 
25 61 
25 65 
25 66 
25 67 
25 71 
25 73 
25 74 
25 75 
25 77 
25 78 
25 81 
25 82 
25 84 
25 85 
25 86 
25 88 
25 89 
25 90 
25 92 
25 93 
25 95 
25 98 
25 100 
25 101 
25 108 
25 110 
25 111 
25 114 
25 116 
25 118 
25 120 
25 121 
26 28 
26 31 
26 33 
26 37 
26 38 
26 39 
26 42 
26 43 
26 44 
26 45 
26 46 
26 47 
26 48 
26 57 
26 59 
26 60 
26 63 
26 64 
26 65 
26 69 
26 70 
26 71 
26 73 
26 77 
26 80 
26 81 
26 84 
26 88 
26 92 
26 95 
26 97 
26 98 
26 100 
26 103 
26 104 
26 105 
26 106 
26 107 
26 108 
26 110 
26 111 
26 113 
26 114 
26 116 
26 118 
26 120 
27 28 
27 30 
27 31 
27 33 
27 35 
27 36 
27 37 
27 41 
27 42 
27 50 
27 51 
27 52 
27 53 
27 54 
27 55 
27 57 
27 59 
27 62 
27 63 
27 67 
27 68 
27 69 
27 73 
27 75 
27 76 
27 77 
27 78 
27 79 
27 80 
27 83 
27 84 
27 86 
27 87 
27 88 
27 89 
27 90 
27 91 
27 92 
27 94 
27 95 
27 97 
27 102 
27 103 
27 110 
27 111 
27 113 
27 116 
27 118 
27 120 
28 30 
28 33 
28 34 
28 35 
28 39 
28 40 
28 41 
28 44 
28 45 
28 46 
28 47 
28 48 
28 49 
28 50 
28 57 
28 59 
28 61 
28 62 
28 65 
28 66 
28 71 
28 72 
28 73 
28 75 
28 78 
28 82 
28 83 
28 86 
28 89 
28 94 
28 97 
28 99 
28 101 
28 102 
28 105 
28 106 
28 107 
28 108 
28 109 
28 110 
28 111 
28 113 
28 115 
28 116 
28 118 
28 120 
29 30 
29 32 
29 33 
29 34 
29 37 
29 38 
29 39 
29 43 
29 44 
29 52 
29 53 
29 54 
29 55 
29 56 
29 57 
29 59 
29 61 
29 64 
29 65 
29 68 
29 69 
29 70 
29 71 
29 75 
29 77 
29 78 
29 80 
29 81 
29 82 
29 85 
29 86 
29 88 
29 89 
29 91 
29 92 
29 93 
29 94 
29 96 
29 97 
29 99 
29 101 
29 104 
29 105 
29 111 
29 113 
29 115 
29 118 
29 120 
30 32 
30 34 
30 36 
30 37 
30 41 
30 42 
30 43 
30 45 
30 46 
30 47 
30 48 
30 49 
30 50 
30 51 
30 52 
30 59 
30 61 
30 63 
30 64 
30 67 
30 68 
30 73 
30 74 
30 75 
30 77 
30 80 
30 84 
30 85 
30 88 
30 91 
30 96 
30 99 
30 100 
30 101 
30 103 
30 104 
30 107 
30 108 
30 109 
30 110 
30 111 
30 113 
30 115 
30 117 
30 118 
30 120 
31 32 
31 34 
31 36 
31 39 
31 40 
31 41 
31 45 
31 54 
31 55 
31 56 
31 57 
31 58 
31 59 
31 61 
31 63 
31 66 
31 70 
31 71 
31 72 
31 73 
31 77 
31 78 
31 79 
31 80 
31 82 
31 83 
31 84 
31 87 
31 88 
31 89 
31 90 
31 91 
31 93 
31 94 
31 95 
31 96 
31 98 
31 99 
31 100 
31 103 
31 106 
31 107 
31 113 
31 115 
31 117 
31 120 
32 36 
32 38 
32 39 
32 43 
32 44 
32 47 
32 48 
32 49 
32 50 
32 51 
32 52 
32 53 
32 54 
32 61 
32 63 
32 65 
32 66 
32 68 
32 69 
32 70 
32 75 
32 76 
32 77 
32 78 
32 82 
32 86 
32 87 
32 89 
32 93 
32 98 
32 100 
32 102 
32 103 
32 105 
32 106 
32 109 
32 110 
32 111 
32 112 
32 113 
32 115 
32 117 
32 119 
32 120 
33 35 
33 36 
33 38 
33 41 
33 42 
33 43 
33 46 
33 47 
33 56 
33 57 
33 58 
33 59 
33 60 
33 61 
33 63 
33 65 
33 67 
33 68 
33 72 
33 73 
33 74 
33 75 
33 78 
33 80 
33 81 
33 82 
33 84 
33 85 
33 86 
33 89 
33 91 
33 92 
33 93 
33 95 
33 96 
33 97 
33 98 
33 100 
33 102 
33 105 
33 108 
33 109 
33 115 
33 117 
33 119 
34 35 
34 37 
34 38 
34 40 
34 43 
34 44 
34 48 
34 49 
34 57 
34 58 
34 59 
34 60 
34 61 
34 62 
34 63 
34 65 
34 69 
34 70 
34 74 
34 75 
34 76 
34 77 
34 80 
34 82 
34 83 
34 84 
34 86 
34 87 
34 88 
34 90 
34 91 
34 93 
34 94 
34 95 
34 97 
34 98 
34 99 
34 101 
34 102 
34 104 
34 107 
34 110 
34 117 
34 119 
34 121 
35 37 
35 40 
35 42 
35 43 
35 46 
35 47 
35 48 
35 51 
35 52 
35 53 
35 54 
35 55 
35 56 
35 57 
35 65 
35 68 
35 69 
35 72 
35 73 
35 74 
35 78 
35 79 
35 80 
35 82 
35 86 
35 89 
35 90 
35 93 
35 97 
35 101 
35 104 
35 106 
35 107 
35 109 
35 110 
35 112 
35 113 
35 114 
35 115 
35 116 
35 117 
35 119 
35 121 
36 37 
36 39 
36 40 
36 42 
36 45 
36 46 
36 50 
36 51 
36 59 
36 60 
36 61 
36 62 
36 63 
36 64 
36 65 
36 68 
36 71 
36 72 
36 76 
36 77 
36 78 
36 82 
36 84 
36 85 
36 86 
36 88 
36 89 
36 92 
36 93 
36 95 
36 96 
36 97 
36 99 
36 100 
36 101 
36 103 
36 104 
36 106 
36 109 
36 111 
36 112 
36 119 
36 121 
37 39 
37 42 
37 44 
37 48 
37 49 
37 50 
37 53 
37 54 
37 55 
37 56 
37 57 
37 58 
37 59 
37 68 
37 70 
37 71 
37 74 
37 75 
37 76 
37 80 
37 81 
37 82 
37 84 
37 88 
37 91 
37 92 
37 95 
37 99 
37 103 
37 106 
37 108 
37 109 
37 111 
37 114 
37 115 
37 116 
37 117 
37 118 
37 119 
37 121 
38 39 
38 41 
38 42 
38 44 
38 46 
38 47 
38 48 
38 52 
38 53 
38 61 
38 62 
38 63 
38 64 
38 65 
38 66 
38 68 
38 70 
38 73 
38 74 
38 78 
38 79 
38 80 
38 84 
38 86 
38 87 
38 88 
38 89 
38 90 
38 91 
38 94 
38 95 
38 97 
38 98 
38 99 
38 100 
38 101 
38 102 
38 103 
38 105 
38 106 
38 108 
38 113 
38 114 
38 121 
39 41 
39 44 
39 45 
39 46 
39 50 
39 51 
39 52 
39 55 
39 56 
39 57 
39 58 
39 59 
39 60 
39 61 
39 68 
39 70 
39 72 
39 73 
39 76 
39 77 
39 82 
39 83 
39 84 
39 86 
39 89 
39 93 
39 94 
39 97 
39 100 
39 105 
39 108 
39 110 
39 112 
39 113 
39 116 
39 117 
39 118 
39 119 
39 120 
39 121 
40 41 
40 43 
40 44 
40 45 
40 48 
40 49 
40 50 
40 54 
40 55 
40 63 
40 64 
40 65 
40 66 
40 67 
40 68 
40 70 
40 72 
40 75 
40 76 
40 79 
40 80 
40 81 
40 82 
40 86 
40 88 
40 89 
40 91 
40 92 
40 93 
40 96 
40 97 
40 99 
40 100 
40 102 
40 103 
40 104 
40 105 
40 107 
40 108 
40 110 
40 112 
40 115 
40 116 
41 43 
41 45 
41 47 
41 48 
41 52 
41 53 
41 54 
41 56 
41 57 
41 58 
41 59 
41 60 
41 61 
41 62 
41 63 
41 70 
41 72 
41 74 
41 75 
41 78 
41 79 
41 84 
41 85 
41 86 
41 88 
41 91 
41 95 
41 96 
41 99 
41 102 
41 107 
41 110 
41 111 
41 112 
41 114 
41 115 
41 118 
41 119 
41 120 
41 121 
42 43 
42 45 
42 47 
42 50 
42 51 
42 52 
42 56 
42 65 
42 66 
42 67 
42 68 
42 69 
42 70 
42 72 
42 74 
42 77 
42 81 
42 82 
42 83 
42 84 
42 88 
42 89 
42 90 
42 91 
42 93 
42 94 
42 95 
42 98 
42 99 
42 100 
42 101 
42 102 
42 104 
42 105 
42 106 
42 107 
42 109 
42 110 
42 111 
42 114 
42 117 
42 118 
43 47 
43 49 
43 50 
43 54 
43 55 
43 58 
43 59 
43 60 
43 61 
43 62 
43 63 
43 64 
43 65 
43 72 
43 74 
43 76 
43 77 
43 79 
43 80 
43 81 
43 86 
43 87 
43 88 
43 89 
43 93 
43 97 
43 98 
43 100 
43 104 
43 109 
43 111 
43 113 
43 114 
43 116 
43 117 
43 120 
43 121 
44 46 
44 47 
44 49 
44 52 
44 53 
44 54 
44 57 
44 58 
44 67 
44 68 
44 69 
44 70 
44 71 
44 72 
44 74 
44 76 
44 78 
44 79 
44 83 
44 84 
44 85 
44 86 
44 89 
44 91 
44 92 
44 93 
44 95 
44 96 
44 97 
44 100 
44 102 
44 103 
44 104 
44 106 
44 107 
44 108 
44 109 
44 111 
44 113 
44 116 
44 119 
44 120 
45 46 
45 48 
45 49 
45 51 
45 54 
45 55 
45 59 
45 60 
45 68 
45 69 
45 70 
45 71 
45 72 
45 73 
45 74 
45 76 
45 80 
45 81 
45 85 
45 86 
45 87 
45 88 
45 91 
45 93 
45 94 
45 95 
45 97 
45 98 
45 99 
45 101 
45 102 
45 104 
45 105 
45 106 
45 108 
45 109 
45 110 
45 112 
45 113 
45 115 
45 118 
45 121 
46 48 
46 51 
46 53 
46 54 
46 57 
46 58 
46 59 
46 62 
46 63 
46 64 
46 65 
46 66 
46 67 
46 68 
46 76 
46 79 
46 80 
46 83 
46 84 
46 85 
46 89 
46 90 
46 91 
46 93 
46 97 
46 100 
46 101 
46 104 
46 108 
46 112 
46 115 
46 117 
46 118 
46 120 
46 121 
47 48 
47 50 
47 51 
47 53 
47 56 
47 57 
47 61 
47 62 
47 70 
47 71 
47 72 
47 73 
47 74 
47 75 
47 76 
47 79 
47 82 
47 83 
47 87 
47 88 
47 89 
47 93 
47 95 
47 96 
47 97 
47 99 
47 100 
47 103 
47 104 
47 106 
47 107 
47 108 
47 110 
47 111 
47 112 
47 114 
47 115 
47 117 
47 120 
48 50 
48 53 
48 55 
48 59 
48 60 
48 61 
48 64 
48 65 
48 66 
48 67 
48 68 
48 69 
48 70 
48 79 
48 81 
48 82 
48 85 
48 86 
48 87 
48 91 
48 92 
48 93 
48 95 
48 99 
48 102 
48 103 
48 106 
48 110 
48 114 
48 117 
48 119 
48 120 
49 50 
49 52 
49 53 
49 55 
49 57 
49 58 
49 59 
49 63 
49 64 
49 72 
49 73 
49 74 
49 75 
49 76 
49 77 
49 79 
49 81 
49 84 
49 85 
49 89 
49 90 
49 91 
49 95 
49 97 
49 98 
49 99 
49 100 
49 101 
49 102 
49 105 
49 106 
49 108 
49 109 
49 110 
49 111 
49 112 
49 113 
49 114 
49 116 
49 117 
49 119 
50 52 
50 55 
50 56 
50 57 
50 61 
50 62 
50 63 
50 66 
50 67 
50 68 
50 69 
50 70 
50 71 
50 72 
50 79 
50 81 
50 83 
50 84 
50 87 
50 88 
50 93 
50 94 
50 95 
50 97 
50 100 
50 104 
50 105 
50 108 
50 111 
50 116 
50 119 
50 121 
51 52 
51 54 
51 55 
51 56 
51 59 
51 60 
51 61 
51 65 
51 66 
51 74 
51 75 
51 76 
51 77 
51 78 
51 79 
51 81 
51 83 
51 86 
51 87 
51 90 
51 91 
51 92 
51 93 
51 97 
51 99 
51 100 
51 102 
51 103 
51 104 
51 107 
51 108 
51 110 
51 111 
51 113 
51 114 
51 115 
51 116 
51 118 
51 119 
51 121 
52 54 
52 56 
52 58 
52 59 
52 63 
52 64 
52 65 
52 67 
52 68 
52 69 
52 70 
52 71 
52 72 
52 73 
52 74 
52 81 
52 83 
52 85 
52 86 
52 89 
52 90 
52 95 
52 96 
52 97 
52 99 
52 102 
52 106 
52 107 
52 110 
52 113 
52 118 
52 121 
53 54 
53 56 
53 58 
53 61 
53 62 
53 63 
53 67 
53 76 
53 77 
53 78 
53 79 
53 80 
53 81 
53 83 
53 85 
53 88 
53 92 
53 93 
53 94 
53 95 
53 99 
53 100 
53 101 
53 102 
53 104 
53 105 
53 106 
53 109 
53 110 
53 111 
53 112 
53 113 
53 115 
53 116 
53 117 
53 118 
53 120 
53 121 
54 58 
54 60 
54 61 
54 65 
54 66 
54 69 
54 70 
54 71 
54 72 
54 73 
54 74 
54 75 
54 76 
54 83 
54 85 
54 87 
54 88 
54 90 
54 91 
54 92 
54 97 
54 98 
54 99 
54 100 
54 104 
54 108 
54 109 
54 111 
54 115 
54 120 
55 57 
55 58 
55 60 
55 63 
55 64 
55 65 
55 68 
55 69 
55 78 
55 79 
55 80 
55 81 
55 82 
55 83 
55 85 
55 87 
55 89 
55 90 
55 94 
55 95 
55 96 
55 97 
55 100 
55 102 
55 103 
55 104 
55 106 
55 107 
55 108 
55 111 
55 113 
55 114 
55 115 
55 117 
55 118 
55 119 
55 120 
56 57 
56 59 
56 60 
56 62 
56 65 
56 66 
56 70 
56 71 
56 79 
56 80 
56 81 
56 82 
56 83 
56 84 
56 85 
56 87 
56 91 
56 92 
56 96 
56 97 
56 98 
56 99 
56 102 
56 104 
56 105 
56 106 
56 108 
56 109 
56 110 
56 112 
56 113 
56 115 
56 116 
56 117 
56 119 
56 120 
56 121 
57 59 
57 62 
57 64 
57 65 
57 68 
57 69 
57 70 
57 73 
57 74 
57 75 
57 76 
57 77 
57 78 
57 79 
57 87 
57 90 
57 91 
57 94 
57 95 
57 96 
57 100 
57 101 
57 102 
57 104 
57 108 
57 111 
57 112 
57 115 
57 119 
58 59 
58 61 
58 62 
58 64 
58 67 
58 68 
58 72 
58 73 
58 81 
58 82 
58 83 
58 84 
58 85 
58 86 
58 87 
58 90 
58 93 
58 94 
58 98 
58 99 
58 100 
58 104 
58 106 
58 107 
58 108 
58 110 
58 111 
58 114 
58 115 
58 117 
58 118 
58 119 
58 121 
59 61 
59 64 
59 66 
59 70 
59 71 
59 72 
59 75 
59 76 
59 77 
59 78 
59 79 
59 80 
59 81 
59 90 
59 92 
59 93 
59 96 
59 97 
59 98 
59 102 
59 103 
59 104 
59 106 
59 110 
59 113 
59 114 
59 117 
59 121 
60 61 
60 63 
60 64 
60 66 
60 68 
60 69 
60 70 
60 74 
60 75 
60 83 
60 84 
60 85 
60 86 
60 87 
60 88 
60 90 
60 92 
60 95 
60 96 
60 100 
60 101 
60 102 
60 106 
60 108 
60 109 
60 110 
60 111 
60 112 
60 113 
60 116 
60 117 
60 119 
60 120 
60 121 
61 63 
61 66 
61 67 
61 68 
61 72 
61 73 
61 74 
61 77 
61 78 
61 79 
61 80 
61 81 
61 82 
61 83 
61 90 
61 92 
61 94 
61 95 
61 98 
61 99 
61 104 
61 105 
61 106 
61 108 
61 111 
61 115 
61 116 
61 119 
62 63 
62 65 
62 66 
62 67 
62 70 
62 71 
62 72 
62 76 
62 77 
62 85 
62 86 
62 87 
62 88 
62 89 
62 90 
62 92 
62 94 
62 97 
62 98 
62 101 
62 102 
62 103 
62 104 
62 108 
62 110 
62 111 
62 113 
62 114 
62 115 
62 118 
62 119 
62 121 
63 65 
63 67 
63 69 
63 70 
63 74 
63 75 
63 76 
63 78 
63 79 
63 80 
63 81 
63 82 
63 83 
63 84 
63 85 
63 92 
63 94 
63 96 
63 97 
63 100 
63 101 
63 106 
63 107 
63 108 
63 110 
63 113 
63 117 
63 118 
63 121 
64 65 
64 67 
64 69 
64 72 
64 73 
64 74 
64 78 
64 87 
64 88 
64 89 
64 90 
64 91 
64 92 
64 94 
64 96 
64 99 
64 103 
64 104 
64 105 
64 106 
64 110 
64 111 
64 112 
64 113 
64 115 
64 116 
64 117 
64 120 
64 121 
65 69 
65 71 
65 72 
65 76 
65 77 
65 80 
65 81 
65 82 
65 83 
65 84 
65 85 
65 86 
65 87 
65 94 
65 96 
65 98 
65 99 
65 101 
65 102 
65 103 
65 108 
65 109 
65 110 
65 111 
65 115 
65 119 
65 120 
66 68 
66 69 
66 71 
66 74 
66 75 
66 76 
66 79 
66 80 
66 89 
66 90 
66 91 
66 92 
66 93 
66 94 
66 96 
66 98 
66 100 
66 101 
66 105 
66 106 
66 107 
66 108 
66 111 
66 113 
66 114 
66 115 
66 117 
66 118 
66 119 
67 68 
67 70 
67 71 
67 73 
67 76 
67 77 
67 81 
67 82 
67 90 
67 91 
67 92 
67 93 
67 94 
67 95 
67 96 
67 98 
67 102 
67 103 
67 107 
67 108 
67 109 
67 110 
67 113 
67 115 
67 116 
67 117 
67 119 
67 120 
67 121 
68 70 
68 73 
68 75 
68 76 
68 79 
68 80 
68 81 
68 84 
68 85 
68 86 
68 87 
68 88 
68 89 
68 90 
68 98 
68 101 
68 102 
68 105 
68 106 
68 107 
68 111 
68 112 
68 113 
68 115 
68 119 
69 70 
69 72 
69 73 
69 75 
69 78 
69 79 
69 83 
69 84 
69 92 
69 93 
69 94 
69 95 
69 96 
69 97 
69 98 
69 101 
69 104 
69 105 
69 109 
69 110 
69 111 
69 115 
69 117 
69 118 
69 119 
69 121 
70 72 
70 75 
70 77 
70 81 
70 82 
70 83 
70 86 
70 87 
70 88 
70 89 
70 90 
70 91 
70 92 
70 101 
70 103 
70 104 
70 107 
70 108 
70 109 
70 113 
70 114 
70 115 
70 117 
70 121 
71 72 
71 74 
71 75 
71 77 
71 79 
71 80 
71 81 
71 85 
71 86 
71 94 
71 95 
71 96 
71 97 
71 98 
71 99 
71 101 
71 103 
71 106 
71 107 
71 111 
71 112 
71 113 
71 117 
71 119 
71 120 
71 121 
72 74 
72 77 
72 78 
72 79 
72 83 
72 84 
72 85 
72 88 
72 89 
72 90 
72 91 
72 92 
72 93 
72 94 
72 101 
72 103 
72 105 
72 106 
72 109 
72 110 
72 115 
72 116 
72 117 
72 119 
73 74 
73 76 
73 77 
73 78 
73 81 
73 82 
73 83 
73 87 
73 88 
73 96 
73 97 
73 98 
73 99 
73 100 
73 101 
73 103 
73 105 
73 108 
73 109 
73 112 
73 113 
73 114 
73 115 
73 119 
73 121 
74 76 
74 78 
74 80 
74 81 
74 85 
74 86 
74 87 
74 89 
74 90 
74 91 
74 92 
74 93 
74 94 
74 95 
74 96 
74 103 
74 105 
74 107 
74 108 
74 111 
74 112 
74 117 
74 118 
74 119 
74 121 
75 76 
75 78 
75 80 
75 83 
75 84 
75 85 
75 89 
75 98 
75 99 
75 100 
75 101 
75 102 
75 103 
75 105 
75 107 
75 110 
75 114 
75 115 
75 116 
75 117 
75 121 
76 80 
76 82 
76 83 
76 87 
76 88 
76 91 
76 92 
76 93 
76 94 
76 95 
76 96 
76 97 
76 98 
76 105 
76 107 
76 109 
76 110 
76 112 
76 113 
76 114 
76 119 
76 120 
76 121 
77 79 
77 80 
77 82 
77 85 
77 86 
77 87 
77 90 
77 91 
77 100 
77 101 
77 102 
77 103 
77 104 
77 105 
77 107 
77 109 
77 111 
77 112 
77 116 
77 117 
77 118 
77 119 
78 79 
78 81 
78 82 
78 84 
78 87 
78 88 
78 92 
78 93 
78 101 
78 102 
78 103 
78 104 
78 105 
78 106 
78 107 
78 109 
78 113 
78 114 
78 118 
78 119 
78 120 
78 121 
79 81 
79 84 
79 86 
79 87 
79 90 
79 91 
79 92 
79 95 
79 96 
79 97 
79 98 
79 99 
79 100 
79 101 
79 109 
79 112 
79 113 
79 116 
79 117 
79 118 
80 81 
80 83 
80 84 
80 86 
80 89 
80 90 
80 94 
80 95 
80 103 
80 104 
80 105 
80 106 
80 107 
80 108 
80 109 
80 112 
80 115 
80 116 
80 120 
80 121 
81 83 
81 86 
81 88 
81 92 
81 93 
81 94 
81 97 
81 98 
81 99 
81 100 
81 101 
81 102 
81 103 
81 112 
81 114 
81 115 
81 118 
81 119 
81 120 
82 83 
82 85 
82 86 
82 88 
82 90 
82 91 
82 92 
82 96 
82 97 
82 105 
82 106 
82 107 
82 108 
82 109 
82 110 
82 112 
82 114 
82 117 
82 118 
83 85 
83 88 
83 89 
83 90 
83 94 
83 95 
83 96 
83 99 
83 100 
83 101 
83 102 
83 103 
83 104 
83 105 
83 112 
83 114 
83 116 
83 117 
83 120 
83 121 
84 85 
84 87 
84 88 
84 89 
84 92 
84 93 
84 94 
84 98 
84 99 
84 107 
84 108 
84 109 
84 110 
84 111 
84 112 
84 114 
84 116 
84 119 
84 120 
85 87 
85 89 
85 91 
85 92 
85 96 
85 97 
85 98 
85 100 
85 101 
85 102 
85 103 
85 104 
85 105 
85 106 
85 107 
85 114 
85 116 
85 118 
85 119 
86 87 
86 89 
86 91 
86 94 
86 95 
86 96 
86 100 
86 109 
86 110 
86 111 
86 112 
86 113 
86 114 
86 116 
86 118 
86 121 
87 91 
87 93 
87 94 
87 98 
87 99 
87 102 
87 103 
87 104 
87 105 
87 106 
87 107 
87 108 
87 109 
87 116 
87 118 
87 120 
87 121 
88 90 
88 91 
88 93 
88 96 
88 97 
88 98 
88 101 
88 102 
88 111 
88 112 
88 113 
88 114 
88 115 
88 116 
88 118 
88 120 
89 90 
89 92 
89 93 
89 95 
89 98 
89 99 
89 103 
89 104 
89 112 
89 113 
89 114 
89 115 
89 116 
89 117 
89 118 
89 120 
90 92 
90 95 
90 97 
90 98 
90 101 
90 102 
90 103 
90 106 
90 107 
90 108 
90 109 
90 110 
90 111 
90 112 
90 120 
91 92 
91 94 
91 95 
91 97 
91 100 
91 101 
91 105 
91 106 
91 114 
91 115 
91 116 
91 117 
91 118 
91 119 
91 120 
92 94 
92 97 
92 99 
92 103 
92 104 
92 105 
92 108 
92 109 
92 110 
92 111 
92 112 
92 113 
92 114 
93 94 
93 96 
93 97 
93 99 
93 101 
93 102 
93 103 
93 107 
93 108 
93 116 
93 117 
93 118 
93 119 
93 120 
93 121 
94 96 
94 99 
94 100 
94 101 
94 105 
94 106 
94 107 
94 110 
94 111 
94 112 
94 113 
94 114 
94 115 
94 116 
95 96 
95 98 
95 99 
95 100 
95 103 
95 104 
95 105 
95 109 
95 110 
95 118 
95 119 
95 120 
95 121 
96 98 
96 100 
96 102 
96 103 
96 107 
96 108 
96 109 
96 111 
96 112 
96 113 
96 114 
96 115 
96 116 
96 117 
96 118 
97 98 
97 100 
97 102 
97 105 
97 106 
97 107 
97 111 
97 120 
97 121 
98 102 
98 104 
98 105 
98 109 
98 110 
98 113 
98 114 
98 115 
98 116 
98 117 
98 118 
98 119 
98 120 
99 101 
99 102 
99 104 
99 107 
99 108 
99 109 
99 112 
99 113 
100 101 
100 103 
100 104 
100 106 
100 109 
100 110 
100 114 
100 115 
101 103 
101 106 
101 108 
101 109 
101 112 
101 113 
101 114 
101 117 
101 118 
101 119 
101 120 
101 121 
102 103 
102 105 
102 106 
102 108 
102 111 
102 112 
102 116 
102 117 
103 105 
103 108 
103 110 
103 114 
103 115 
103 116 
103 119 
103 120 
103 121 
104 105 
104 107 
104 108 
104 110 
104 112 
104 113 
104 114 
104 118 
104 119 
105 107 
105 110 
105 111 
105 112 
105 116 
105 117 
105 118 
105 121 
106 107 
106 109 
106 110 
106 111 
106 114 
106 115 
106 116 
106 120 
106 121 
107 109 
107 111 
107 113 
107 114 
107 118 
107 119 
107 120 
108 109 
108 111 
108 113 
108 116 
108 117 
108 118 
109 113 
109 115 
109 116 
109 120 
109 121 
110 112 
110 113 
110 115 
110 118 
110 119 
110 120 
111 112 
111 114 
111 115 
111 117 
111 120 
111 121 
112 114 
112 117 
112 119 
112 120 
113 114 
113 116 
113 117 
113 119 
114 116 
114 119 
114 121 
115 116 
115 118 
115 119 
115 121 
116 118 
116 121 
117 118 
117 120 
117 121 
118 120 
119 120 
